s td 62 71 161
b 1 1 2 3 6 9 11 17 18 19 29 30 31 32 33 34 35 36 41 42 43 46 49 51 54 55 58 61 62 64 65 68 69 71 72 75 81 82 84 85 86 89 91 94 95 97 103 105 106 110 112 115 116 118 120 122 123 125 126 127 128 130 132 133 134 135 139 141 142 143 151 156
b 2 1 3 6 9 11 17 18 19 29 30 31 32 33 34 35 36 42 43 46 49 51 54 55 58 61 62 64 65 68 69 71 72 75 81 82 84 85 86 89 91 94 95 97 99 103 105 106 110 112 115 116 118 120 122 123 125 126 127 128 130 132 133 134 135 139 141 142 143 151 154 156
b 3 1 3 6 9 11 17 18 19 29 30 31 32 33 34 35 36 42 43 46 49 51 54 55 58 61 62 64 65 68 69 71 72 75 81 82 83 84 86 89 91 94 95 97 99 103 105 106 110 112 115 116 118 120 122 123 125 127 128 130 132 133 134 135 139 141 142 143 151 154 156
b 4 1 3 6 8 9 11 17 18 19 29 30 31 32 33 34 35 36 42 43 46 49 54 55 58 61 62 64 65 68 69 71 72 75 81 82 83 84 86 89 91 94 95 97 99 103 105 106 110 112 115 116 118 120 122 123 125 127 128 130 132 133 134 135 139 141 142 151 154 156
b 5 1 3 6 8 9 11 12 17 18 27 29 30 31 32 33 34 35 36 42 43 44 45 46 49 54 55 58 62 64 65 68 69 71 72 75 81 82 83 84 86 89 91 94 95 97 99 103 105 106 110 112 115 116 118 120 122 125 127 128 130 132 133 134 135 139 141 142 150 151 154 156
b 6 1 3 6 8 9 11 12 16 17 18 27 29 30 31 32 33 34 35 36 42 43 44 45 46 50 54 55 58 62 64 65 68 69 71 72 75 81 82 83 84 86 89 91 95 97 99 105 106 107 112 115 116 118 120 122 125 127 128 130 132 133 134 135 139 141 142 150 151 154 156 161
b 7 1 3 6 8 9 11 12 16 17 18 27 29 31 32 33 34 35 36 42 43 44 45 46 50 54 55 57 58 62 64 65 68 69 71 72 81 82 83 84 86 89 91 95 97 99 105 106 107 112 115 116 118 120 122 125 127 128 130 132 133 134 135 141 142 150 151 154 156 161
b 8 1 3 4 6 8 9 11 12 16 17 18 27 29 32 33 34 35 36 42 43 44 45 46 50 54 55 57 58 62 64 65 68 69 71 72 81 82 83 84 86 89 91 95 97 99 105 106 107 112 115 116 118 120 122 125 127 128 130 132 133 134 135 141 142 150 151 154 156 161
b 9 1 3 4 6 8 9 11 12 16 17 18 20 27 29 32 33 34 35 36 42 43 44 45 46 50 54 55 57 58 62 64 65 68 69 71 72 81 82 83 84 86 89 91 95 97 99 105 106 107 112 116 118 120 122 125 127 128 130 132 133 134 135 141 142 150 151 154 156 161
b 10 1 3 4 6 8 9 10 11 12 16 17 18 20 27 28 29 32 33 34 35 36 42 43 44 45 46 50 54 55 57 58 62 64 65 68 69 71 72 81 82 83 84 86 89 91 97 99 105 106 107 112 116 118 122 125 127 128 130 132 133 134 135 141 142 150 151 154 156 161
b 11 1 3 4 6 8 9 10 11 12 16 17 18 20 26 27 28 29 32 33 34 35 36 42 43 44 45 46 50 54 55 57 58 62 64 65 68 69 71 72 78 81 82 83 84 86 89 97 99 105 106 107 112 118 122 125 127 128 130 132 133 134 135 141 142 150 151 154 156 161
b 12 1 3 4 6 8 9 10 11 12 16 17 18 20 22 26 27 28 29 32 33 34 35 36 42 43 44 45 46 50 54 55 57 58 62 64 65 68 71 72 78 81 82 83 84 86 89 97 99 105 106 107 112 118 122 125 127 128 130 132 133 134 135 141 142 150 151 154 156 161
b 13 1 3 4 6 8 9 11 12 16 17 18 20 22 26 27 29 32 33 34 35 36 42 43 44 45 46 50 54 55 58 62 64 65 68 71 72 78 80 81 82 83 84 86 89 97 99 105 106 107 112 118 122 125 127 128 130 132 133 134 135 136 141 142 150 151 154 156 161
b 14 1 3 4 6 8 9 11 12 16 17 18 20 26 27 29 32 33 34 35 36 42 43 44 45 46 50 54 55 58 62 64 65 68 71 72 73 78 80 81 82 83 84 86 89 97 99 105 106 107 112 118 122 125 127 128 130 132 133 134 135 136 141 142 150 151 154 156 161
b 15 1 3 4 6 8 9 11 12 16 17 18 20 26 27 29 32 33 34 35 36 42 43 44 45 46 50 54 55 58 62 64 65 68 71 72 73 80 81 82 83 84 86 89 97 99 101 106 107 112 118 122 125 127 128 130 132 133 134 135 136 141 142 150 151 154 156 161
b 16 1 3 4 6 8 9 11 12 16 17 18 20 26 27 29 32 33 34 35 36 42 43 44 45 46 50 54 55 58 62 64 65 68 71 72 73 80 81 82 83 84 86 89 97 99 101 106 107 112 118 122 125 127 128 130 132 133 135 136 141 142 148 150 151 154 156 161
b 17 1 3 4 6 8 9 11 12 16 17 18 20 26 27 29 32 33 34 35 42 43 44 45 46 50 54 55 58 62 64 65 68 71 72 73 80 81 82 83 84 86 89 97 99 101 106 107 112 114 118 119 122 125 127 130 132 133 135 136 141 142 148 150 151 154 161
b 18 1 3 4 5 6 8 9 11 12 16 17 18 20 26 27 29 32 33 34 35 42 43 44 45 46 50 54 55 58 62 64 65 68 71 72 80 81 82 83 84 86 89 97 99 101 106 107 112 114 118 119 122 125 127 130 132 133 135 136 141 142 148 150 151 154 161
b 19 1 3 4 5 6 8 9 11 12 16 17 18 20 26 27 29 32 33 34 35 42 43 44 45 46 50 53 54 55 58 62 64 65 68 71 72 81 82 83 84 86 89 97 99 101 107 112 114 119 122 125 127 130 132 133 135 141 142 148 150 151 153 154 161
b 20 1 3 4 5 6 8 9 11 12 16 17 18 20 26 27 29 32 33 34 35 42 43 44 45 46 50 53 54 55 58 62 64 65 68 71 81 82 83 84 86 89 97 99 101 107 112 114 119 122 124 125 127 130 132 133 135 141 142 148 150 151 153 154 158 161
b 21 1 3 4 5 6 8 9 11 12 16 17 18 20 26 27 29 32 33 34 35 42 43 44 45 50 53 54 55 58 64 65 68 71 79 81 82 83 84 86 89 97 99 101 107 112 114 119 124 125 127 130 132 133 141 142 148 150 151 153 154 158 161
b 22 1 3 4 5 6 8 9 11 12 16 18 20 26 27 29 33 34 35 42 43 44 45 50 53 54 55 58 64 65 68 71 79 81 82 83 84 86 89 97 99 101 107 112 113 114 119 124 125 127 130 132 133 141 142 148 150 151 153 154 158 161
b 23 3 4 5 6 8 9 11 12 16 18 20 26 27 29 33 34 35 38 42 43 44 45 50 53 54 55 58 64 65 68 71 79 81 82 83 84 86 89 97 99 101 107 112 113 114 119 124 125 127 130 132 133 141 142 148 150 151 153 154 158 161
b 24 3 4 5 8 9 11 12 16 18 20 26 27 29 33 34 35 38 42 43 44 45 50 53 54 55 58 64 65 68 71 74 79 81 82 83 84 86 99 101 107 113 114 119 124 125 127 130 132 140 141 142 148 150 151 153 154 158 161
b 25 3 4 5 8 9 11 12 16 18 20 26 27 29 33 34 35 38 42 43 44 45 50 53 54 55 58 64 65 68 71 74 79 81 82 83 84 86 99 101 107 113 114 119 124 125 127 132 140 142 148 150 151 153 154 155 158 161
b 26 3 4 5 8 9 11 12 14 16 20 26 27 29 33 34 35 38 42 43 44 45 50 53 55 58 64 65 68 71 74 79 81 82 83 84 99 101 107 113 114 119 124 125 127 132 140 142 148 150 151 153 154 155 158 161
b 27 3 4 5 8 9 11 12 14 16 20 27 29 33 35 38 43 44 45 50 53 55 58 65 71 74 79 81 83 84 90 99 100 101 107 113 114 119 124 125 132 140 148 150 151 153 154 155 158 161
b 28 3 4 5 7 8 9 11 12 14 16 20 27 29 33 35 38 43 44 45 50 53 55 58 65 71 74 79 81 83 84 90 99 100 101 107 113 119 124 125 132 140 148 150 151 153 154 155 161
b 29 3 9 10 11 12 16 26 27 28 29 33 35 36 43 44 45 50 57 58 65 69 78 84 105 107 128 134 150 151 156 160
b 30 3 9 10 11 12 13 16 26 27 28 29 33 35 43 44 45 50 57 58 65 69 84 104 107 150 151 160
b 31 9 10 11 12 13 16 26 27 28 29 44 45 50 57 58 60 65 69 84 104 107 121 129 150 160
b 32 9 10 11 12 13 16 26 27 29 44 45 48 50 57 58 60 65 69 84 104 107 121 129 150 160
b 33 1 2 3 6 9 11 17 18 19 29 30 31 32 33 34 35 36 41 42 43 46 49 51 54 58 61 62 64 65 68 69 71 72 75 81 82 84 85 86 89 91 93 94 95 97 103 105 106 110 112 115 116 118 120 122 123 125 126 127 128 130 132 133 134 135 139 141 142 143 151 156
b 34 1 2 3 6 9 11 17 18 19 29 30 31 32 33 34 35 36 41 42 43 46 49 51 54 61 62 64 65 68 69 71 72 75 81 82 84 85 86 89 91 93 94 95 97 103 105 106 110 112 115 116 118 120 122 123 125 126 127 128 130 132 133 134 135 139 141 142 143 147 151 156
b 35 1 2 3 6 11 17 18 19 29 30 31 32 33 34 35 36 41 42 43 46 49 51 54 61 62 64 65 68 69 71 72 75 81 82 84 85 86 89 91 93 94 95 97 103 105 106 110 112 115 116 118 120 122 123 125 126 127 128 130 132 133 134 135 139 141 142 143 147 149 151 156
b 36 1 2 3 6 17 18 19 30 31 32 33 34 35 36 39 41 42 43 46 49 51 54 61 62 64 68 69 71 72 75 81 82 84 85 86 89 91 93 94 95 97 103 105 106 110 112 115 116 118 120 122 123 125 126 127 128 130 132 133 134 135 139 141 142 143 147 149 151 156
b 37 1 2 3 6 17 18 19 30 31 32 33 34 35 36 39 41 42 43 46 49 51 54 61 62 64 68 69 71 72 75 81 82 84 85 86 89 91 93 94 95 97 103 105 106 110 112 115 116 118 120 122 123 125 126 127 128 130 132 133 134 135 141 142 143 146 147 149 151 156
b 38 1 2 3 6 17 18 19 25 30 31 32 33 34 35 36 39 41 42 43 46 49 51 54 61 62 64 68 71 72 75 81 82 84 85 86 89 91 93 94 95 97 103 105 106 110 112 115 116 118 120 122 123 125 126 127 128 130 132 133 134 135 141 142 143 146 147 149 151 156
b 39 1 2 3 6 17 18 19 25 30 31 32 33 34 35 39 41 42 43 46 49 51 54 61 62 64 68 71 72 75 81 82 84 85 86 89 91 93 94 95 97 103 105 106 110 112 115 116 118 120 122 123 125 126 127 130 132 133 134 135 141 142 143 146 147 149 151 152 156 159
b 40 1 2 3 6 17 18 19 25 30 31 32 33 34 35 39 41 42 43 46 49 51 54 61 62 64 68 71 72 75 81 82 84 85 86 89 91 93 94 97 103 105 106 110 111 112 115 116 118 120 122 123 125 126 127 130 132 133 134 135 141 142 143 146 147 149 151 152 156 159
b 41 1 2 3 6 17 18 19 25 30 31 32 33 34 35 39 41 42 43 46 49 51 54 61 62 63 64 68 71 72 75 81 82 84 85 86 89 91 93 94 97 103 105 106 110 111 112 115 116 118 120 122 123 125 126 127 130 133 134 135 141 142 143 146 147 149 151 152 156 159
b 42 1 2 3 6 19 25 30 31 32 33 35 39 41 43 46 49 51 59 61 62 63 68 71 72 75 81 82 84 85 86 89 91 93 94 97 103 105 106 110 111 112 115 116 118 120 122 123 125 126 127 133 134 135 141 142 143 145 146 147 149 151 152 156 159
b 43 1 2 3 6 19 25 30 32 33 35 39 40 41 43 46 49 51 59 61 62 63 68 71 72 75 81 82 84 85 86 89 91 93 94 97 103 105 106 110 111 112 115 116 118 120 122 123 125 126 127 133 134 135 141 142 143 145 146 147 149 151 152 156 159
b 44 1 2 3 6 19 23 25 30 32 33 35 39 40 41 43 46 49 51 59 61 62 63 68 71 72 75 81 82 85 86 89 91 93 94 97 103 106 110 111 112 115 116 118 120 122 123 125 126 127 133 135 141 142 143 145 146 147 149 151 152 159
b 45 1 2 3 6 19 23 25 30 32 33 35 39 40 41 43 49 51 59 61 62 63 68 71 72 75 81 82 85 86 89 91 93 94 97 103 106 110 111 112 115 116 117 118 120 122 123 125 126 127 133 135 141 142 143 145 146 147 149 151 152 159
b 46 1 2 3 19 21 23 25 30 32 33 35 39 40 41 43 49 51 59 61 62 63 68 71 72 75 81 82 85 86 89 91 93 94 97 103 106 110 111 112 115 116 117 118 120 122 123 125 126 127 133 135 137 141 142 143 145 146 147 149 151 152 159
b 47 1 2 3 19 21 23 25 30 32 33 35 39 40 41 43 49 51 59 61 62 63 68 71 72 75 77 81 82 85 86 89 91 92 93 94 97 103 106 110 111 115 116 117 118 120 122 123 125 126 127 133 135 137 141 142 143 145 146 147 149 151 152 159
b 48 1 2 3 19 21 23 24 25 30 32 33 35 39 40 41 43 49 51 59 61 62 63 68 71 72 75 77 81 82 85 86 88 91 92 93 94 103 106 110 111 115 116 117 118 120 122 123 125 126 127 133 135 137 141 142 143 145 146 147 149 151 152 159
b 49 1 2 3 15 19 21 23 24 25 32 33 35 39 40 41 43 49 51 59 61 62 63 68 71 72 75 77 81 82 85 86 88 91 92 93 94 103 106 110 111 115 116 117 118 120 122 123 125 126 127 133 135 137 141 142 143 145 146 147 149 151 152 159
b 50 1 2 3 15 19 21 23 24 25 32 33 35 39 40 41 43 49 51 59 61 62 63 68 71 72 76 77 81 82 85 86 88 92 93 94 103 106 110 111 115 116 117 118 120 122 123 125 126 127 133 135 137 141 142 143 145 146 147 149 151 152 159
b 51 1 2 3 15 19 21 23 24 25 32 33 35 39 40 41 43 49 51 59 61 62 63 68 71 72 76 77 81 82 85 86 88 92 93 94 98 103 106 110 111 115 117 118 120 122 123 125 126 127 133 135 137 141 142 143 145 146 147 149 151 152 159
b 52 1 2 3 15 19 21 24 25 32 33 35 37 39 43 61 62 68 71 72 76 81 82 85 86 87 88 92 93 98 106 115 117 118 122 123 127 135 138 141 142 143 146 147 149 151
b 53 1 2 15 19 21 24 25 32 37 39 61 62 68 72 76 82 85 87 88 92 93 98 115 117 122 123 131 135 138 141 143 146 147 149
b 54 1 2 15 19 21 24 25 32 37 39 61 62 68 72 76 82 85 87 88 92 93 98 109 115 117 122 123 131 135 138 143 146 147 149
b 55 1 2 15 19 21 24 25 37 39 61 62 66 68 72 76 82 85 87 88 92 93 98 109 115 117 122 123 131 135 138 143 146 147 149
b 56 1 2 15 19 21 24 25 37 39 47 61 66 68 72 76 82 85 87 88 92 93 98 109 115 117 122 123 131 135 138 143 146 147
b 57 2 3 15 19 21 23 24 25 33 35 39 40 41 43 49 51 56 59 61 63 72 76 77 85 86 88 92 94 98 102 103 106 110 111 115 117 118 120 123 125 126 133 137 143 145 146 151 152 159
b 58 2 3 15 19 21 23 24 25 33 35 39 40 41 43 49 51 56 59 61 63 67 72 76 77 85 86 88 92 94 98 102 103 106 110 111 115 117 118 120 123 125 126 133 137 143 145 146 151 152
b 59 2 3 15 19 21 23 24 25 33 35 39 40 41 43 49 51 56 59 61 67 70 72 76 77 85 86 88 92 94 98 102 103 106 110 111 115 117 118 120 123 125 126 133 137 143 145 146 151
b 60 2 3 15 19 21 23 24 25 33 35 39 40 41 43 49 51 52 56 59 61 67 70 72 76 77 85 86 88 92 94 98 102 103 106 110 115 117 118 120 123 125 126 137 143 145 146 151
b 61 3 15 21 23 24 33 35 43 49 52 70 72 76 77 88 92 94 96 98 103 108 110 117 125 137 144 151
b 62 3 15 21 23 24 33 35 43 49 52 70 76 77 88 92 94 96 98 103 108 110 117 125 144 151 157
1 2
1 33
2 3
3 4
4 5
5 6
6 7
7 8
8 9
9 10
10 11
11 12
11 29
12 13
13 14
14 15
15 16
16 17
17 18
18 19
19 20
20 21
21 22
22 23
23 24
24 25
25 26
26 27
27 28
29 30
30 31
31 32
33 34
34 35
35 36
36 37
37 38
38 39
39 40
40 41
41 42
42 43
43 44
44 45
45 46
46 47
47 48
48 49
49 50
50 51
51 52
51 57
52 53
53 54
54 55
55 56
57 58
58 59
59 60
60 61
61 62
